33240 40988 
31661 41620 
32864 41199 
32761 41223 
31627 41648 
31985 41559 
31321 41749 
33335 40909 
33383 40903 
32385 41434 
31721 41599 
32079 41510 
33047 41139 
33901 40640 
34036 40573 
33759 40692 
33473 40840 
31912 41594 
32270 41505 
34420 40344 
33422 40875 
33557 40808 
34938 39928 
32789 41209 
32646 41294 
